135013.47
0 61 40 28 35 25 1 49 2 118 110 112 116 54 111 117 108 39 107 120 57 119 60 115 68 114 65 64 70 76 113 51 73 56 50 41 42 69 78 44 83 80 84 81 10 13 15 16 90 94 75 77 79 100 104 99 98 103 106 93 89 88 92 95 58 91 96 101 102 97 105 31 29 30 109 48 47 43 63 59 33 34 37 38 126 18 19 62 17 53 14 12 20 11 5 6 45 32 55 24 23 22 21 46 7 4 9 3 71 8 82 85 67 86 87 72 74 66 26 52 123 122 125 124 27 121 36